;#######################
;RECORD DATATYPE with BOTTOM and ERROR
;#######################
(declare-datatypes (U) ((TValue (mk-val (val U)(miss Bool)(err Bool)))))

;#######################
;Set of elements of type T with attached an integer index
;#######################
(define-sort Set (T) (Array Int T)) 
;################### STRING DECLARATIONs #######################
 (declare-datatypes () ((String s_doctor s_e-Prescription s_read s_Alice s_e-Pre-Write s_e-Pre-Read s_pharmacist s_Data_requested_by_unauthorized_subject s_write  s_AdditionalStringValue )))
;################### FACPL FUNCTION DECLARATIONs #######################
(define-fun isFalse ((x (TValue Bool))) Bool
	(ite (= x (mk-val false false false)) true false)
)

(define-fun isTrue ((x (TValue Bool))) Bool
	(ite (= x (mk-val true false false)) true false)
)

(define-fun isBool ((x (TValue Bool))) Bool
		(ite (or (isFalse x) (isTrue x))
			true
			false
		)
)

(define-fun isNotBoolValue ((x (TValue Bool))) Bool
		(ite (or (isFalse x) (isTrue x)) 
			false
			(ite (and (not (miss x)) (not (err x)))
				true
				false
			)
		)
)

(define-fun FAnd ((x (TValue Bool)) (y (TValue Bool))) (TValue Bool)
	(ite (and (isTrue x) (isTrue y))
		(mk-val true false false)
		(ite (or (isFalse x) (isFalse y))
			(mk-val false false false)
			(ite (or (err x) (err y))
				(mk-val false false true)
				(mk-val false true false)
			)
		)
	)
)

(define-fun FOr ((x (TValue Bool)) (y (TValue Bool))) (TValue Bool)
	(ite (or (isTrue x) (isTrue y))
		(mk-val true false false)
		(ite (or (err x) (err y))
			(mk-val false false true)
			(ite (or (miss x) (miss y))
				(mk-val false true true)
				(mk-val false false false)
			)
		)
	)
)

(define-fun FNot ((x (TValue Bool))) (TValue Bool)
	(ite (isTrue x)
		(mk-val false false false)
		(ite (isFalse x)
			(mk-val true false false)
			(ite (miss x)
				(mk-val false true false)
				(mk-val false false true)
			)
		)
	)
)
(define-fun equalBool ((x (TValue Bool)) (y (TValue Bool))) (TValue Bool)
	(ite (or (err x) (err y))
		(mk-val false false true)
		(ite (or (miss x) (miss y))
			(mk-val false true false)
			(ite (= (val x) (val y))
				(mk-val true false false)
				(mk-val false false false)
			)
		)
	)
)

(define-fun equalInt ((x (TValue Int)) (y (TValue Int))) (TValue Bool)
	(ite (or (err x) (err y))
		(mk-val false false true)
		(ite (or (miss x) (miss y))
			(mk-val false true false)
			(ite (= (val x) (val y))
				(mk-val true false false)
				(mk-val false false false)
			)
		)
	)
)

(define-fun equalReal ((x (TValue Real)) (y (TValue Real))) (TValue Bool)
	(ite (or (err x) (err y))
		(mk-val false false true)
		(ite (or (miss x) (miss y))
			(mk-val false true false)
			(ite (= (val x) (val y))
				(mk-val true false false)
				(mk-val false false false)
			)
		)
	)
)

(define-fun notequalBool ((x (TValue Bool)) (y (TValue Bool))) (TValue Bool)
	(ite (or (err x) (err y))
		(mk-val false false true)
		(ite (or (miss x) (miss y))
			(mk-val false true false)
			(ite (= (val x) (val y))
				(mk-val false false false)
				(mk-val true false false)
			)
		)
	)
)

(define-fun notequalInt ((x (TValue Int)) (y (TValue Int))) (TValue Bool)
	(ite (or (err x) (err y))
		(mk-val false false true)
		(ite (or (miss x) (miss y))
			(mk-val false true false)
			(ite (= (val x) (val y))
				(mk-val false false false)
				(mk-val true false false)
			)
		)
	)
)

(define-fun notequalReal ((x (TValue Real)) (y (TValue Real))) (TValue Bool)
	(ite (or (err x) (err y))
		(mk-val false false true)
		(ite (or (miss x) (miss y))
			(mk-val false true false)
			(ite (= (val x) (val y))
				(mk-val false false false)
				(mk-val true false false)
			)
		)
	)
)

(define-fun isValString ((x (TValue String))) Bool
	(ite (and (not (miss x)) (not (err x))) true false)
)

(define-fun equalString ((x (TValue String)) (y (TValue String))) (TValue Bool)
	(ite (and (isValString x) (isValString y))
		(ite (= (val x) (val y))
			(mk-val true false false)
			(mk-val false false false)
		)
		(ite (or (err x) (err y))
			(mk-val false false true)
			(mk-val false true false)
		)
	)
)

(define-fun notequalString ((x (TValue String)) (y (TValue String))) (TValue Bool)
		(ite (and (isValString x) (isValString y))
			(ite (= (val x) (val y))
				(mk-val false false false)
				(mk-val true false false)
			)
			(ite (or (err x) (err y))
				(mk-val false false true)
				(mk-val false true false)
			)
		)
)

(define-fun isValSetString ((x (TValue (Set String)))) Bool
	(ite (and (not (miss x)) (not (err x))) true false)
)

(define-fun inString ((x (TValue String)) (y (TValue (Set String)))) (TValue Bool)
	(ite (or (err x)(err y)) 
		(mk-val false false true)
		(ite (or (miss x) (miss y))
			(mk-val false true false)
			(ite (exists ((i Int))
						(= (val x) (select (val y) i))
				  )
				(mk-val true false false)
				(mk-val false false false)
			)
		)
	)
)

(define-fun isValInt ((x (TValue Int))) Bool
	(ite (and (not (miss x)) (not (err x))) true false)
)

(define-fun lessthanInt ((x (TValue Int)) (y (TValue Int))) (TValue Bool)
	(ite (or (err x) (err y))
		(mk-val false false true)
		(ite (or (miss x) (miss y))
			(mk-val false true false)
			(ite (< (val x) (val y))
				(mk-val true false false)
				(mk-val false false false)
			)
		)
	)
)

(define-fun lessthanorequalInt ((x (TValue Int)) (y (TValue Int))) (TValue Bool)
	(ite (or (err x) (err y))
		(mk-val false false true)
		(ite (or (miss x) (miss y))
			(mk-val false true false)
			(ite (<= (val x) (val y))
				(mk-val true false false)
				(mk-val false false false)
			)
		)
	)
)

(define-fun greaterthanInt ((x (TValue Int)) (y (TValue Int))) (TValue Bool)
	(ite (or (err x) (err y))
		(mk-val false false true)
		(ite (or (miss x) (miss y))
			(mk-val false true false)
			(ite (> (val x) (val y))
				(mk-val true false false)
				(mk-val false false false)
			)
		)
	)
)

(define-fun greaterthanorequalInt ((x (TValue Int)) (y (TValue Int))) (TValue Bool)
	(ite (or (err x) (err y))
		(mk-val false false true)
		(ite (or (miss x) (miss y))
			(mk-val false true false)
			(ite (>= (val x) (val y))
				(mk-val true false false)
				(mk-val false false false)
			)
		)
	)
)

(define-fun additionInt ((x (TValue Int)) (y (TValue Int))) (TValue Int)
	(ite (and (isValInt x) (isValInt y))
		(mk-val (+ (val x) (val y)) false false)
		(ite (or (err x) (err y))
			(mk-val 0 false true)
			(mk-val 0 true false)
		)
	)
)

(define-fun subtractInt ((x (TValue Int)) (y (TValue Int))) (TValue Int)
	(ite (and (isValInt x) (isValInt y))
		(mk-val (- (val x) (val y)) false false)
		(ite (or (err x) (err y))
			(mk-val 0 false true)
			(mk-val 0 true false)
		)
	)
)


(define-fun multiplyInt ((x (TValue Int)) (y (TValue Int))) (TValue Int)
	(ite (and (isValInt x) (isValInt y))
		(mk-val (* (val x) (val y)) false false)
		(ite (or (err x) (err y))
			(mk-val 0 false true)
			(mk-val 0 true false)
		)
	)
)


(define-fun divideInt ((x (TValue Int)) (y (TValue Int))) (TValue Int)
	(ite (and (isValInt x) (isValInt y))
		(mk-val (div (val x) (val y)) false false)
		(ite (or (err x) (err y))
			(mk-val 0 false true)
			(mk-val 0 true false)
		)
	)
)

(define-fun isValReal ((x (TValue Real))) Bool
	(ite (and (not (miss x)) (not (err x))) true false)
)

(define-fun lessthanReal ((x (TValue Real)) (y (TValue Real))) (TValue Bool)
	(ite (or (err x) (err y))
		(mk-val false false true)
		(ite (or (miss x) (miss y))
			(mk-val false true false)
			(ite (< (val x) (val y))
				(mk-val true false false)
				(mk-val false false false)
			)
		)
	)
)

(define-fun lessthanorequalReal ((x (TValue Real)) (y (TValue Real))) (TValue Bool)
	(ite (or (err x) (err y))
		(mk-val false false true)
		(ite (or (miss x) (miss y))
			(mk-val false true false)
			(ite (<= (val x) (val y))
				(mk-val true false false)
				(mk-val false false false)
			)
		)
	)
)

(define-fun greaterthanReal ((x (TValue Real)) (y (TValue Real))) (TValue Bool)
	(ite (or (err x) (err y))
		(mk-val false false true)
		(ite (or (miss x) (miss y))
			(mk-val false true false)
			(ite (> (val x) (val y))
				(mk-val true false false)
				(mk-val false false false)
			)
		)
	)
)

(define-fun greaterthanorequalReal ((x (TValue Real)) (y (TValue Real))) (TValue Bool)
	(ite (or (err x) (err y))
		(mk-val false false true)
		(ite (or (miss x) (miss y))
			(mk-val false true false)
			(ite (>= (val x) (val y))
				(mk-val true false false)
				(mk-val false false false)
			)
		)
	)
)

(define-fun additionReal ((x (TValue Real)) (y (TValue Real))) (TValue Real)
	(ite (and (isValReal x) (isValReal y))
		(mk-val (+ (val x) (val y)) false false)
		(ite (or (err x) (err y))
			(mk-val 0.0 false true)
			(mk-val 0.0 true false)
		)
	)
)

(define-fun subtractReal ((x (TValue Real)) (y (TValue Real))) (TValue Real)
	(ite (and (isValReal x) (isValReal y))
		(mk-val (- (val x) (val y)) false false)
		(ite (or (err x) (err y))
			(mk-val 0.0 false true)
			(mk-val 0.0 true false)
		)
	)
)


(define-fun multiplyReal ((x (TValue Real)) (y (TValue Real))) (TValue Real)
	(ite (and (isValReal x) (isValReal y))
		(mk-val (* (val x) (val y)) false false)
		(ite (or (err x) (err y))
			(mk-val 0.0 false true)
			(mk-val 0.0 true false)
		)
	)
)


(define-fun divideReal ((x (TValue Real)) (y (TValue Real))) (TValue Real)
	(ite (and (isValReal x) (isValReal y))
		(mk-val (/ (val x) (val y)) false false)
		(ite (or (err x) (err y))
			(mk-val 0.0 false true)
			(mk-val 0.0 true false)
		)
	)
)
(define-fun isValSetInt ((x (TValue (Set Int)))) Bool
	(ite (and (not (miss x)) (not (err x))) true false)
)

(define-fun isValSetReal ((x (TValue (Set Real)))) Bool
	(ite (and (not (miss x)) (not (err x))) true false)
)

(define-fun isValSetBool ((x (TValue (Set Bool)))) Bool
	(ite (and (not (miss x)) (not (err x))) true false)
)

(define-fun inBool ((x (TValue Bool)) (y (TValue (Set Bool)))) (TValue Bool)
	(ite (or (err x)(err y)) 
		(mk-val false false true)
		(ite (or (miss x) (miss y))
			(mk-val false true false)
			(ite (exists ((i Int))
						(= (val x) (select (val y) i))
				  )
				(mk-val true false false)
				(mk-val false false false)
			)
		)
	)
)

(define-fun inReal ((x (TValue Real)) (y (TValue (Set Real)))) (TValue Bool)
	(ite (or (err x)(err y)) 
		(mk-val false false true)
		(ite (or (miss x) (miss y))
			(mk-val false true false)
			(ite (exists ((i Int))
						(= (val x) (select (val y) i))
				  )
				(mk-val true false false)
				(mk-val false false false)
			)
		)
	)
)

(define-fun inInt ((x (TValue Int)) (y (TValue (Set Int)))) (TValue Bool)
	(ite (or (err x)(err y)) 
		(mk-val false false true)
		(ite (or (miss x) (miss y))
			(mk-val false true false)
			(ite (exists ((i Int))
						(= (val x) (select (val y) i))
				  )
				(mk-val true false false)
				(mk-val false false false)
			)
		)
	)
)
;################################ END DATATYPEs AND FUNCTIONs DECLARATION #############################

;################### ATTRIBUTE DECLARATIONs #######################
(declare-const n_subject/id (TValue Bool))
(assert (not (and (miss n_subject/id) (err n_subject/id))))
 
(declare-const n_resource/type (TValue String))
(assert (not (and (miss n_resource/type) (err n_resource/type))))
 
(declare-const n_action/id (TValue String))
(assert (not (and (miss n_action/id) (err n_action/id))))
 
(declare-const n_system/time (TValue Bool))
(assert (not (and (miss n_system/time) (err n_system/time))))
 
(declare-const n_resource/patient-id.mail (TValue Bool))
(assert (not (and (miss n_resource/patient-id.mail) (err n_resource/patient-id.mail))))
 
(declare-const n_subject/role (TValue String))
(assert (not (and (miss n_subject/role) (err n_subject/role))))
 
(declare-const n_subject/permission (TValue (Set String)))
(assert (not (and (miss n_subject/permission) (err n_subject/permission))))
 
(declare-const n_resource/patient-id (TValue String))
(assert (not (and (miss n_resource/patient-id) (err n_resource/patient-id))))
 
;################### CONSTANTs DECLARATIONs #######################
 
(declare-const const_doctor (TValue String))
(assert (= (val const_doctor) s_doctor))
(assert (not (miss const_doctor))) 
(assert (not (err const_doctor)))
 
(declare-const const_e-Prescription (TValue String))
(assert (= (val const_e-Prescription) s_e-Prescription))
(assert (not (miss const_e-Prescription))) 
(assert (not (err const_e-Prescription)))
 
(declare-const const_read (TValue String))
(assert (= (val const_read) s_read))
(assert (not (miss const_read))) 
(assert (not (err const_read)))
 
(declare-const const_Alice (TValue String))
(assert (= (val const_Alice) s_Alice))
(assert (not (miss const_Alice))) 
(assert (not (err const_Alice)))
 
(declare-const const_e-Pre-Write (TValue String))
(assert (= (val const_e-Pre-Write) s_e-Pre-Write))
(assert (not (miss const_e-Pre-Write))) 
(assert (not (err const_e-Pre-Write)))
 
(declare-const const_e-Pre-Read (TValue String))
(assert (= (val const_e-Pre-Read) s_e-Pre-Read))
(assert (not (miss const_e-Pre-Read))) 
(assert (not (err const_e-Pre-Read)))
 
(declare-const const_pharmacist (TValue String))
(assert (= (val const_pharmacist) s_pharmacist))
(assert (not (miss const_pharmacist))) 
(assert (not (err const_pharmacist)))
 
(declare-const const_Data_requested_by_unauthorized_subject (TValue String))
(assert (= (val const_Data_requested_by_unauthorized_subject) s_Data_requested_by_unauthorized_subject))
(assert (not (miss const_Data_requested_by_unauthorized_subject))) 
(assert (not (err const_Data_requested_by_unauthorized_subject)))
 
(declare-const const_write (TValue String))
(assert (= (val const_write) s_write))
(assert (not (miss const_write))) 
(assert (not (err const_write)))
;################################ END ATTRIBUTEs AND CONSTANTs DECLARATION #############################
;###################### STRUCTURAL PROPERTY #####################
(echo "--> Check COMPLETE of root... (holds if the following check is unsat)")
(assert cns_root_notApp)

(check-sat)
(get-model)
